100
1000
209
209
207
205
199
193
193
189
188
186
181
180
178
175
174
170
169
169
168
166
164
161
157
156
155
155
153
153
152
152
148
147
145
145
144
144
141
133
133
133
126
125
123
119
118
117
116
110
109
108
106
103
100
99
98
96
95
94
92
90
87
86
84
79
77
74
72
72
71
71
62
61
59
56
55
55
54
53
48
47
44
42
42
41
39
38
37
36
32
29
29
27
27
25
24
24
22
21
14
14
